data/processed_heuristic-threshold/instances/1/9/ds_920_courier_487/pairwise.tsp
NAME: ds_920_courier_487
TYPE: TSP
COMMENT: nil
DIMENSION: 10
EDGE_WEIGHT_TYPE: EXPLICIT
EDGE_WEIGHT_FORMAT: FULL_MATRIX
EDGE_WEIGHT_SECTION
9999 2761 2909 3726 2500 3057 2757 3241 4443 3623 
2761 9999 209 984 2156 302 1912 2572 5611 881 
2909 209 9999 896 2359 174 2105 2758 5818 797 
3726 984 896 9999 2622 723 2258 2788 6100 104 
2500 2156 2359 2622 9999 2371 429 747 3491 2553 
3057 302 174 723 2371 9999 2090 2725 5848 623 
2757 1912 2105 2258 429 2090 9999 690 3842 2197 
3241 2572 2758 2788 747 2725 690 9999 3407 2742 
4443 5611 5818 6100 3491 5848 3842 3407 9999 6036 
3623 881 797 104 2553 623 2197 2742 6036 9999 
