data/processed_heuristic-threshold/instances/1/9/ds_920_courier_487/pairwise.sol
10
0 1 2 5 9 3 6 4 7 8 
